c *********************************
c * Circuit generated by BenCGen
c *
c * RippleCarryAdderSubtractor_34_34_34_OutSunT
c *
c * Ports with 1 gate(s): 2
c * Ports with 2 gate(s): 206
c * Total gates: 208
c *********************************
p cnf 276 725
1 105 0
-1 -105 0
1 -104 0
105 -104 0
-1 -105 104 0
104 106 0
-104 -106 0
35 104 -107 0
-35 104 107 0
35 -104 107 0
-35 -104 -107 0
36 104 -108 0
-36 104 108 0
36 -104 108 0
-36 -104 -108 0
37 104 -109 0
-37 104 109 0
37 -104 109 0
-37 -104 -109 0
38 104 -110 0
-38 104 110 0
38 -104 110 0
-38 -104 -110 0
39 104 -111 0
-39 104 111 0
39 -104 111 0
-39 -104 -111 0
40 104 -112 0
-40 104 112 0
40 -104 112 0
-40 -104 -112 0
41 104 -113 0
-41 104 113 0
41 -104 113 0
-41 -104 -113 0
42 104 -114 0
-42 104 114 0
42 -104 114 0
-42 -104 -114 0
43 104 -115 0
-43 104 115 0
43 -104 115 0
-43 -104 -115 0
44 104 -116 0
-44 104 116 0
44 -104 116 0
-44 -104 -116 0
45 104 -117 0
-45 104 117 0
45 -104 117 0
-45 -104 -117 0
46 104 -118 0
-46 104 118 0
46 -104 118 0
-46 -104 -118 0
47 104 -119 0
-47 104 119 0
47 -104 119 0
-47 -104 -119 0
48 104 -120 0
-48 104 120 0
48 -104 120 0
-48 -104 -120 0
49 104 -121 0
-49 104 121 0
49 -104 121 0
-49 -104 -121 0
50 104 -122 0
-50 104 122 0
50 -104 122 0
-50 -104 -122 0
51 104 -123 0
-51 104 123 0
51 -104 123 0
-51 -104 -123 0
52 104 -124 0
-52 104 124 0
52 -104 124 0
-52 -104 -124 0
53 104 -125 0
-53 104 125 0
53 -104 125 0
-53 -104 -125 0
54 104 -126 0
-54 104 126 0
54 -104 126 0
-54 -104 -126 0
55 104 -127 0
-55 104 127 0
55 -104 127 0
-55 -104 -127 0
56 104 -128 0
-56 104 128 0
56 -104 128 0
-56 -104 -128 0
57 104 -129 0
-57 104 129 0
57 -104 129 0
-57 -104 -129 0
58 104 -130 0
-58 104 130 0
58 -104 130 0
-58 -104 -130 0
59 104 -131 0
-59 104 131 0
59 -104 131 0
-59 -104 -131 0
60 104 -132 0
-60 104 132 0
60 -104 132 0
-60 -104 -132 0
61 104 -133 0
-61 104 133 0
61 -104 133 0
-61 -104 -133 0
62 104 -134 0
-62 104 134 0
62 -104 134 0
-62 -104 -134 0
63 104 -135 0
-63 104 135 0
63 -104 135 0
-63 -104 -135 0
64 104 -136 0
-64 104 136 0
64 -104 136 0
-64 -104 -136 0
65 104 -137 0
-65 104 137 0
65 -104 137 0
-65 -104 -137 0
66 104 -138 0
-66 104 138 0
66 -104 138 0
-66 -104 -138 0
67 104 -139 0
-67 104 139 0
67 -104 139 0
-67 -104 -139 0
68 104 -140 0
-68 104 140 0
68 -104 140 0
-68 -104 -140 0
1 107 -142 0
-1 107 142 0
1 -107 142 0
-1 -107 -142 0
142 104 -69 0
-142 104 69 0
142 -104 69 0
-142 -104 -69 0
104 -143 0
142 -143 0
-104 -142 143 0
107 -144 0
1 -144 0
-107 -1 144 0
-143 141 0
-144 141 0
143 144 -141 0
2 108 -146 0
-2 108 146 0
2 -108 146 0
-2 -108 -146 0
146 141 -70 0
-146 141 70 0
146 -141 70 0
-146 -141 -70 0
141 -147 0
146 -147 0
-141 -146 147 0
108 -148 0
2 -148 0
-108 -2 148 0
-147 145 0
-148 145 0
147 148 -145 0
3 109 -150 0
-3 109 150 0
3 -109 150 0
-3 -109 -150 0
150 145 -71 0
-150 145 71 0
150 -145 71 0
-150 -145 -71 0
145 -151 0
150 -151 0
-145 -150 151 0
109 -152 0
3 -152 0
-109 -3 152 0
-151 149 0
-152 149 0
151 152 -149 0
4 110 -154 0
-4 110 154 0
4 -110 154 0
-4 -110 -154 0
154 149 -72 0
-154 149 72 0
154 -149 72 0
-154 -149 -72 0
149 -155 0
154 -155 0
-149 -154 155 0
110 -156 0
4 -156 0
-110 -4 156 0
-155 153 0
-156 153 0
155 156 -153 0
5 111 -158 0
-5 111 158 0
5 -111 158 0
-5 -111 -158 0
158 153 -73 0
-158 153 73 0
158 -153 73 0
-158 -153 -73 0
153 -159 0
158 -159 0
-153 -158 159 0
111 -160 0
5 -160 0
-111 -5 160 0
-159 157 0
-160 157 0
159 160 -157 0
6 112 -162 0
-6 112 162 0
6 -112 162 0
-6 -112 -162 0
162 157 -74 0
-162 157 74 0
162 -157 74 0
-162 -157 -74 0
157 -163 0
162 -163 0
-157 -162 163 0
112 -164 0
6 -164 0
-112 -6 164 0
-163 161 0
-164 161 0
163 164 -161 0
7 113 -166 0
-7 113 166 0
7 -113 166 0
-7 -113 -166 0
166 161 -75 0
-166 161 75 0
166 -161 75 0
-166 -161 -75 0
161 -167 0
166 -167 0
-161 -166 167 0
113 -168 0
7 -168 0
-113 -7 168 0
-167 165 0
-168 165 0
167 168 -165 0
8 114 -170 0
-8 114 170 0
8 -114 170 0
-8 -114 -170 0
170 165 -76 0
-170 165 76 0
170 -165 76 0
-170 -165 -76 0
165 -171 0
170 -171 0
-165 -170 171 0
114 -172 0
8 -172 0
-114 -8 172 0
-171 169 0
-172 169 0
171 172 -169 0
9 115 -174 0
-9 115 174 0
9 -115 174 0
-9 -115 -174 0
174 169 -77 0
-174 169 77 0
174 -169 77 0
-174 -169 -77 0
169 -175 0
174 -175 0
-169 -174 175 0
115 -176 0
9 -176 0
-115 -9 176 0
-175 173 0
-176 173 0
175 176 -173 0
10 116 -178 0
-10 116 178 0
10 -116 178 0
-10 -116 -178 0
178 173 -78 0
-178 173 78 0
178 -173 78 0
-178 -173 -78 0
173 -179 0
178 -179 0
-173 -178 179 0
116 -180 0
10 -180 0
-116 -10 180 0
-179 177 0
-180 177 0
179 180 -177 0
11 117 -182 0
-11 117 182 0
11 -117 182 0
-11 -117 -182 0
182 177 -79 0
-182 177 79 0
182 -177 79 0
-182 -177 -79 0
177 -183 0
182 -183 0
-177 -182 183 0
117 -184 0
11 -184 0
-117 -11 184 0
-183 181 0
-184 181 0
183 184 -181 0
12 118 -186 0
-12 118 186 0
12 -118 186 0
-12 -118 -186 0
186 181 -80 0
-186 181 80 0
186 -181 80 0
-186 -181 -80 0
181 -187 0
186 -187 0
-181 -186 187 0
118 -188 0
12 -188 0
-118 -12 188 0
-187 185 0
-188 185 0
187 188 -185 0
13 119 -190 0
-13 119 190 0
13 -119 190 0
-13 -119 -190 0
190 185 -81 0
-190 185 81 0
190 -185 81 0
-190 -185 -81 0
185 -191 0
190 -191 0
-185 -190 191 0
119 -192 0
13 -192 0
-119 -13 192 0
-191 189 0
-192 189 0
191 192 -189 0
14 120 -194 0
-14 120 194 0
14 -120 194 0
-14 -120 -194 0
194 189 -82 0
-194 189 82 0
194 -189 82 0
-194 -189 -82 0
189 -195 0
194 -195 0
-189 -194 195 0
120 -196 0
14 -196 0
-120 -14 196 0
-195 193 0
-196 193 0
195 196 -193 0
15 121 -198 0
-15 121 198 0
15 -121 198 0
-15 -121 -198 0
198 193 -83 0
-198 193 83 0
198 -193 83 0
-198 -193 -83 0
193 -199 0
198 -199 0
-193 -198 199 0
121 -200 0
15 -200 0
-121 -15 200 0
-199 197 0
-200 197 0
199 200 -197 0
16 122 -202 0
-16 122 202 0
16 -122 202 0
-16 -122 -202 0
202 197 -84 0
-202 197 84 0
202 -197 84 0
-202 -197 -84 0
197 -203 0
202 -203 0
-197 -202 203 0
122 -204 0
16 -204 0
-122 -16 204 0
-203 201 0
-204 201 0
203 204 -201 0
17 123 -206 0
-17 123 206 0
17 -123 206 0
-17 -123 -206 0
206 201 -85 0
-206 201 85 0
206 -201 85 0
-206 -201 -85 0
201 -207 0
206 -207 0
-201 -206 207 0
123 -208 0
17 -208 0
-123 -17 208 0
-207 205 0
-208 205 0
207 208 -205 0
18 124 -210 0
-18 124 210 0
18 -124 210 0
-18 -124 -210 0
210 205 -86 0
-210 205 86 0
210 -205 86 0
-210 -205 -86 0
205 -211 0
210 -211 0
-205 -210 211 0
124 -212 0
18 -212 0
-124 -18 212 0
-211 209 0
-212 209 0
211 212 -209 0
19 125 -214 0
-19 125 214 0
19 -125 214 0
-19 -125 -214 0
214 209 -87 0
-214 209 87 0
214 -209 87 0
-214 -209 -87 0
209 -215 0
214 -215 0
-209 -214 215 0
125 -216 0
19 -216 0
-125 -19 216 0
-215 213 0
-216 213 0
215 216 -213 0
20 126 -218 0
-20 126 218 0
20 -126 218 0
-20 -126 -218 0
218 213 -88 0
-218 213 88 0
218 -213 88 0
-218 -213 -88 0
213 -219 0
218 -219 0
-213 -218 219 0
126 -220 0
20 -220 0
-126 -20 220 0
-219 217 0
-220 217 0
219 220 -217 0
21 127 -222 0
-21 127 222 0
21 -127 222 0
-21 -127 -222 0
222 217 -89 0
-222 217 89 0
222 -217 89 0
-222 -217 -89 0
217 -223 0
222 -223 0
-217 -222 223 0
127 -224 0
21 -224 0
-127 -21 224 0
-223 221 0
-224 221 0
223 224 -221 0
22 128 -226 0
-22 128 226 0
22 -128 226 0
-22 -128 -226 0
226 221 -90 0
-226 221 90 0
226 -221 90 0
-226 -221 -90 0
221 -227 0
226 -227 0
-221 -226 227 0
128 -228 0
22 -228 0
-128 -22 228 0
-227 225 0
-228 225 0
227 228 -225 0
23 129 -230 0
-23 129 230 0
23 -129 230 0
-23 -129 -230 0
230 225 -91 0
-230 225 91 0
230 -225 91 0
-230 -225 -91 0
225 -231 0
230 -231 0
-225 -230 231 0
129 -232 0
23 -232 0
-129 -23 232 0
-231 229 0
-232 229 0
231 232 -229 0
24 130 -234 0
-24 130 234 0
24 -130 234 0
-24 -130 -234 0
234 229 -92 0
-234 229 92 0
234 -229 92 0
-234 -229 -92 0
229 -235 0
234 -235 0
-229 -234 235 0
130 -236 0
24 -236 0
-130 -24 236 0
-235 233 0
-236 233 0
235 236 -233 0
25 131 -238 0
-25 131 238 0
25 -131 238 0
-25 -131 -238 0
238 233 -93 0
-238 233 93 0
238 -233 93 0
-238 -233 -93 0
233 -239 0
238 -239 0
-233 -238 239 0
131 -240 0
25 -240 0
-131 -25 240 0
-239 237 0
-240 237 0
239 240 -237 0
26 132 -242 0
-26 132 242 0
26 -132 242 0
-26 -132 -242 0
242 237 -94 0
-242 237 94 0
242 -237 94 0
-242 -237 -94 0
237 -243 0
242 -243 0
-237 -242 243 0
132 -244 0
26 -244 0
-132 -26 244 0
-243 241 0
-244 241 0
243 244 -241 0
27 133 -246 0
-27 133 246 0
27 -133 246 0
-27 -133 -246 0
246 241 -95 0
-246 241 95 0
246 -241 95 0
-246 -241 -95 0
241 -247 0
246 -247 0
-241 -246 247 0
133 -248 0
27 -248 0
-133 -27 248 0
-247 245 0
-248 245 0
247 248 -245 0
28 134 -250 0
-28 134 250 0
28 -134 250 0
-28 -134 -250 0
250 245 -96 0
-250 245 96 0
250 -245 96 0
-250 -245 -96 0
245 -251 0
250 -251 0
-245 -250 251 0
134 -252 0
28 -252 0
-134 -28 252 0
-251 249 0
-252 249 0
251 252 -249 0
29 135 -254 0
-29 135 254 0
29 -135 254 0
-29 -135 -254 0
254 249 -97 0
-254 249 97 0
254 -249 97 0
-254 -249 -97 0
249 -255 0
254 -255 0
-249 -254 255 0
135 -256 0
29 -256 0
-135 -29 256 0
-255 253 0
-256 253 0
255 256 -253 0
30 136 -258 0
-30 136 258 0
30 -136 258 0
-30 -136 -258 0
258 253 -98 0
-258 253 98 0
258 -253 98 0
-258 -253 -98 0
253 -259 0
258 -259 0
-253 -258 259 0
136 -260 0
30 -260 0
-136 -30 260 0
-259 257 0
-260 257 0
259 260 -257 0
31 137 -262 0
-31 137 262 0
31 -137 262 0
-31 -137 -262 0
262 257 -99 0
-262 257 99 0
262 -257 99 0
-262 -257 -99 0
257 -263 0
262 -263 0
-257 -262 263 0
137 -264 0
31 -264 0
-137 -31 264 0
-263 261 0
-264 261 0
263 264 -261 0
32 138 -266 0
-32 138 266 0
32 -138 266 0
-32 -138 -266 0
266 261 -100 0
-266 261 100 0
266 -261 100 0
-266 -261 -100 0
261 -267 0
266 -267 0
-261 -266 267 0
138 -268 0
32 -268 0
-138 -32 268 0
-267 265 0
-268 265 0
267 268 -265 0
33 139 -270 0
-33 139 270 0
33 -139 270 0
-33 -139 -270 0
270 265 -101 0
-270 265 101 0
270 -265 101 0
-270 -265 -101 0
265 -271 0
270 -271 0
-265 -270 271 0
139 -272 0
33 -272 0
-139 -33 272 0
-271 269 0
-272 269 0
271 272 -269 0
34 140 -274 0
-34 140 274 0
34 -140 274 0
-34 -140 -274 0
274 269 -102 0
-274 269 102 0
274 -269 102 0
-274 -269 -102 0
269 -275 0
274 -275 0
-269 -274 275 0
140 -276 0
34 -276 0
-140 -34 276 0
-275 273 0
-276 273 0
275 276 -273 0
273 104 -103 0
-273 104 103 0
273 -104 103 0
-273 -104 -103 0
